(set-info :source |printed by MathSAT|)
(declare-fun A_12 () Int)
(declare-fun .x.23 () Int)
(declare-fun B_11 () Int)
(declare-fun .y.9 () Int)
(declare-fun C_11 () (Array Int Int))
(declare-fun .x.24 () (Array Int Int))
(declare-fun D_11 () Int)
(declare-fun I_11 () Int)
(declare-fun .y.5 () Int)
(declare-fun .x.25 () Int)
(declare-fun .loc.6 () Bool)
(declare-fun .loc.10 () Bool)
(declare-fun .loc.7 () Bool)
(declare-fun .loc.11 () Bool)
(declare-fun .loc.8 () Bool)
(declare-fun .loc.12 () Bool)
(declare-fun H_12 () Int)
(declare-fun H_13 () Int)
(define-fun .def_8 () Int (! A_12 :next |.x.23|))
(define-fun .def_10 () Int (! B_11 :next |.y.9|))
(define-fun .def_12 () (Array Int Int) (! C_11 :next |.x.24|))
(define-fun .def_14 () Int (! D_11 :next |I_11|))
(define-fun .def_16 () Int (! .y.5 :next |.x.25|))
(define-fun .def_18 () Bool (! .loc.6 :next |.loc.10|))
(define-fun .def_20 () Bool (! .loc.7 :next |.loc.11|))
(define-fun .def_22 () Bool (! .loc.8 :next |.loc.12|))
(define-fun .def_34 () Int (! H_12 :next |.xtv.1|))
(define-fun .def_224 () Int (! H_13 :next |.xpv.1|))
(define-fun .def_63 () Bool (not .def_18))
(define-fun .def_39 () Bool (not .def_20))
(define-fun .def_222 () Bool (and .def_39 .def_63))
(define-fun .def_55 () Bool (not .def_22))
(define-fun .def_223 () Bool (! (and .def_55 .def_222) :init true))
(define-fun .def_200 () Bool (= I_11 0))
(define-fun .def_198 () Bool (= .def_14 .x.25))
(define-fun .def_25 () Bool (<= .def_14 .def_10))
(define-fun .def_199 () Bool (and .def_25 .def_198))
(define-fun .def_201 () Bool (and .def_199 .def_200))
(define-fun .def_202 () Bool (and .def_63 .def_201))
(define-fun .def_196 () Bool (= .def_16 .x.25))
(define-fun .def_191 () Int (* (- 1) I_11))
(define-fun .def_192 () Int (+ .def_14 .def_191))
(define-fun .def_193 () Bool (= .def_192 (- 1)))
(define-fun .def_48 () Int (* (- 1) .def_34))
(define-fun .def_187 () Int (+ .def_14 .def_48))
(define-fun .def_188 () Int (+ .def_8 .def_187))
(define-fun .def_189 () Bool (= .def_188 0))
(define-fun .def_183 () Bool (<= .def_16 .def_14))
(define-fun .def_184 () Bool (not .def_183))
(define-fun .def_180 () Int (select .def_12 .def_34))
(define-fun .def_181 () Bool (= .def_180 47))
(define-fun .def_182 () Bool (and .def_18 .def_181))
(define-fun .def_185 () Bool (and .def_182 .def_184))
(define-fun .def_31 () Bool (<= .def_8 0))
(define-fun .def_32 () Bool (not .def_31))
(define-fun .def_186 () Bool (and .def_32 .def_185))
(define-fun .def_190 () Bool (and .def_186 .def_189))
(define-fun .def_194 () Bool (and .def_190 .def_193))
(define-fun .def_35 () Bool (<= .def_34 0))
(define-fun .def_36 () Bool (not .def_35))
(define-fun .def_37 () Bool (or .def_31 .def_36))
(define-fun .def_195 () Bool (and .def_37 .def_194))
(define-fun .def_197 () Bool (and .def_195 .def_196))
(define-fun .def_203 () Bool (or .def_197 .def_202))
(define-fun .def_179 () Bool (and .loc.10 .def_20))
(define-fun .def_204 () Bool (and .def_179 .def_203))
(define-fun .def_174 () Bool (and .def_18 .def_25))
(define-fun .def_82 () Bool (not .loc.10))
(define-fun .def_175 () Bool (and .def_82 .def_174))
(define-fun .def_176 () Bool (and .def_39 .def_175))
(define-fun .def_66 () Bool (= .y.9 0))
(define-fun .def_177 () Bool (and .def_66 .def_176))
(define-fun .def_41 () Bool (= .def_14 I_11))
(define-fun .def_178 () Bool (and .def_41 .def_177))
(define-fun .def_205 () Bool (or .def_178 .def_204))
(define-fun .def_93 () Bool (= .def_12 .x.24))
(define-fun .def_206 () Bool (and .def_93 .def_205))
(define-fun .def_169 () (Array Int Int) (store .def_12 .def_34 47))
(define-fun .def_170 () Bool (= .x.24 .def_169))
(define-fun .def_26 () Bool (not .def_25))
(define-fun .def_77 () Bool (and .def_20 .def_26))
(define-fun .def_78 () Bool (and .def_63 .def_77))
(define-fun .def_164 () Bool (and .def_32 .def_78))
(define-fun .def_165 () Bool (and .def_37 .def_164))
(define-fun .def_166 () Bool (and .def_82 .def_165))
(define-fun .def_167 () Bool (and .def_41 .def_166))
(define-fun .def_171 () Bool (and .def_167 .def_170))
(define-fun .def_44 () Int (* (- 1) .y.9))
(define-fun .def_45 () Int (+ .def_10 .def_44))
(define-fun .def_46 () Bool (= .def_45 (- 1)))
(define-fun .def_172 () Bool (and .def_46 .def_171))
(define-fun .def_49 () Int (+ .def_10 .def_48))
(define-fun .def_50 () Int (+ .def_8 .def_49))
(define-fun .def_51 () Bool (= .def_50 0))
(define-fun .def_173 () Bool (and .def_51 .def_172))
(define-fun .def_207 () Bool (or .def_173 .def_206))
(define-fun .def_208 () Bool (and .loc.11 .def_207))
(define-fun .def_94 () Bool (and .def_25 .def_93))
(define-fun .def_158 () Bool (and .def_63 .def_94))
(define-fun .def_159 () Bool (and .loc.10 .def_158))
(define-fun .def_160 () Bool (and .def_39 .def_159))
(define-fun .def_161 () Bool (and .def_66 .def_160))
(define-fun .def_162 () Bool (and .def_41 .def_161))
(define-fun .def_53 () Bool (not .loc.11))
(define-fun .def_163 () Bool (and .def_53 .def_162))
(define-fun .def_209 () Bool (or .def_163 .def_208))
(define-fun .def_155 () (Array Int Int) (store .def_12 .def_34 46))
(define-fun .def_156 () Bool (= .x.24 .def_155))
(define-fun .def_103 () Bool (and .def_18 .def_26))
(define-fun .def_146 () Bool (and .loc.10 .def_103))
(define-fun .def_147 () Bool (and .def_32 .def_146))
(define-fun .def_148 () Bool (and .def_37 .def_147))
(define-fun .def_149 () Bool (and .def_39 .def_148))
(define-fun .def_150 () Bool (and .def_41 .def_149))
(define-fun .def_151 () Bool (and .def_46 .def_150))
(define-fun .def_152 () Bool (and .def_51 .def_151))
(define-fun .def_153 () Bool (and .def_53 .def_152))
(define-fun .def_157 () Bool (and .def_153 .def_156))
(define-fun .def_210 () Bool (or .def_157 .def_209))
(define-fun .def_211 () Bool (and .def_22 .def_210))
(define-fun .def_95 () Bool (and .def_18 .def_94))
(define-fun .def_140 () Bool (and .def_20 .def_95))
(define-fun .def_141 () Bool (and .def_82 .def_140))
(define-fun .def_142 () Bool (and .def_66 .def_141))
(define-fun .def_143 () Bool (and .def_41 .def_142))
(define-fun .def_144 () Bool (and .def_53 .def_143))
(define-fun .def_145 () Bool (and .def_55 .def_144))
(define-fun .def_212 () Bool (or .def_145 .def_211))
(define-fun .def_137 () (Array Int Int) (store .def_12 .def_34 45))
(define-fun .def_138 () Bool (= .x.24 .def_137))
(define-fun .def_126 () Bool (and .def_22 .def_26))
(define-fun .def_127 () Bool (and .def_63 .def_126))
(define-fun .def_128 () Bool (and .def_32 .def_127))
(define-fun .def_129 () Bool (and .def_37 .def_128))
(define-fun .def_130 () Bool (and .def_82 .def_129))
(define-fun .def_131 () Bool (and .def_39 .def_130))
(define-fun .def_132 () Bool (and .def_41 .def_131))
(define-fun .def_133 () Bool (and .def_46 .def_132))
(define-fun .def_134 () Bool (and .def_51 .def_133))
(define-fun .def_135 () Bool (and .def_53 .def_134))
(define-fun .def_139 () Bool (and .def_135 .def_138))
(define-fun .def_213 () Bool (or .def_139 .def_212))
(define-fun .def_214 () Bool (and .loc.12 .def_213))
(define-fun .def_118 () Bool (and .def_20 .def_94))
(define-fun .def_119 () Bool (and .def_63 .def_118))
(define-fun .def_120 () Bool (and .loc.10 .def_119))
(define-fun .def_121 () Bool (and .loc.11 .def_120))
(define-fun .def_122 () Bool (and .def_66 .def_121))
(define-fun .def_123 () Bool (and .def_41 .def_122))
(define-fun .def_124 () Bool (and .def_55 .def_123))
(define-fun .def_57 () Bool (not .loc.12))
(define-fun .def_125 () Bool (and .def_57 .def_124))
(define-fun .def_215 () Bool (or .def_125 .def_214))
(define-fun .def_115 () (Array Int Int) (store .def_12 .def_34 44))
(define-fun .def_116 () Bool (= .x.24 .def_115))
(define-fun .def_104 () Bool (and .def_20 .def_103))
(define-fun .def_105 () Bool (and .loc.10 .def_104))
(define-fun .def_106 () Bool (and .loc.11 .def_105))
(define-fun .def_107 () Bool (and .def_32 .def_106))
(define-fun .def_108 () Bool (and .def_37 .def_107))
(define-fun .def_109 () Bool (and .def_41 .def_108))
(define-fun .def_110 () Bool (and .def_46 .def_109))
(define-fun .def_111 () Bool (and .def_51 .def_110))
(define-fun .def_112 () Bool (and .def_55 .def_111))
(define-fun .def_113 () Bool (and .def_57 .def_112))
(define-fun .def_117 () Bool (and .def_113 .def_116))
(define-fun .def_216 () Bool (or .def_117 .def_215))
(define-fun .def_96 () Bool (and .loc.11 .def_95))
(define-fun .def_97 () Bool (and .def_82 .def_96))
(define-fun .def_98 () Bool (and .def_39 .def_97))
(define-fun .def_99 () Bool (and .def_66 .def_98))
(define-fun .def_100 () Bool (and .def_41 .def_99))
(define-fun .def_101 () Bool (and .def_55 .def_100))
(define-fun .def_102 () Bool (and .def_57 .def_101))
(define-fun .def_217 () Bool (or .def_102 .def_216))
(define-fun .def_90 () (Array Int Int) (store .def_12 .def_34 43))
(define-fun .def_91 () Bool (= .x.24 .def_90))
(define-fun .def_79 () Bool (and .loc.11 .def_78))
(define-fun .def_80 () Bool (and .def_32 .def_79))
(define-fun .def_81 () Bool (and .def_37 .def_80))
(define-fun .def_83 () Bool (and .def_81 .def_82))
(define-fun .def_84 () Bool (and .def_41 .def_83))
(define-fun .def_85 () Bool (and .def_46 .def_84))
(define-fun .def_86 () Bool (and .def_51 .def_85))
(define-fun .def_87 () Bool (and .def_55 .def_86))
(define-fun .def_88 () Bool (and .def_57 .def_87))
(define-fun .def_92 () Bool (and .def_88 .def_91))
(define-fun .def_218 () Bool (or .def_92 .def_217))
(define-fun .def_24 () Bool (= .def_8 .x.23))
(define-fun .def_219 () Bool (and .def_24 .def_218))
(define-fun .def_74 () Bool (<= .x.23 0))
(define-fun .def_75 () Bool (not .def_74))
(define-fun .def_71 () Bool (<= I_11 0))
(define-fun .def_72 () Bool (not .def_71))
(define-fun .def_64 () Bool (and .loc.10 .def_63))
(define-fun .def_65 () Bool (and .def_39 .def_64))
(define-fun .def_67 () Bool (and .def_65 .def_66))
(define-fun .def_68 () Bool (and .def_53 .def_67))
(define-fun .def_69 () Bool (and .def_55 .def_68))
(define-fun .def_70 () Bool (and .def_57 .def_69))
(define-fun .def_73 () Bool (and .def_70 .def_72))
(define-fun .def_76 () Bool (and .def_73 .def_75))
(define-fun .def_220 () Bool (or .def_76 .def_219))
(define-fun .def_60 () (Array Int Int) (store .def_12 .def_34 42))
(define-fun .def_61 () Bool (= .x.24 .def_60))
(define-fun .def_27 () Bool (and .def_24 .def_26))
(define-fun .def_28 () Bool (and .def_18 .def_27))
(define-fun .def_29 () Bool (and .loc.10 .def_28))
(define-fun .def_33 () Bool (and .def_29 .def_32))
(define-fun .def_38 () Bool (and .def_33 .def_37))
(define-fun .def_40 () Bool (and .def_38 .def_39))
(define-fun .def_42 () Bool (and .def_40 .def_41))
(define-fun .def_47 () Bool (and .def_42 .def_46))
(define-fun .def_52 () Bool (and .def_47 .def_51))
(define-fun .def_54 () Bool (and .def_52 .def_53))
(define-fun .def_56 () Bool (and .def_54 .def_55))
(define-fun .def_58 () Bool (and .def_56 .def_57))
(define-fun .def_62 () Bool (and .def_58 .def_61))
(define-fun .def_221 () Bool (! (or .def_62 .def_220) :trans true))
(define-fun .def_239 () Bool (and .def_18 .def_20))
(define-fun .def_240 () Bool (and .def_22 .def_239))
(define-fun .def_234 () Int (select .def_12 .def_224))
(define-fun .def_235 () Bool (= .def_234 47))
(define-fun .def_236 () Bool (not .def_235))
(define-fun .def_232 () Bool (and .def_32 .def_184))
(define-fun .def_228 () Int (* (- 1) .def_224))
(define-fun .def_229 () Int (+ .def_14 .def_228))
(define-fun .def_230 () Int (+ .def_8 .def_229))
(define-fun .def_231 () Bool (= .def_230 0))
(define-fun .def_233 () Bool (and .def_231 .def_232))
(define-fun .def_237 () Bool (and .def_233 .def_236))
(define-fun .def_225 () Bool (<= .def_224 0))
(define-fun .def_226 () Bool (not .def_225))
(define-fun .def_227 () Bool (or .def_31 .def_226))
(define-fun .def_238 () Bool (and .def_227 .def_237))
(define-fun .def_241 () Bool (and .def_238 .def_240))
(define-fun .def_243 () Bool (! (not .def_241) :invar-property 0))
(assert true)
